c 
c G(k,n,p) graph
c graph gen seed     : 332471
c number of vertices : 70
c max number of edges: 1225
c number of classes  : 2
c edge density       : 0.400000
c edge probability   : 0.800000
c data structure     : dense
c
c           Graph Stats
c number of vertices  : 70
c nonisolated vertices: 70
c number of edges     : 961
c edge density        : 0.397930
c max degree          : 35
c avg degree          : 27.46
c min degree          : 21
p col 70 961
e 1 2
e 1 4
e 1 5
e 1 6
e 1 7
e 1 8
e 1 10
e 1 11
e 1 12
e 1 14
e 1 15
e 1 17
e 1 22
e 1 25
e 1 27
e 1 28
e 1 29
e 1 30
e 1 32
e 1 38
e 1 39
e 1 41
e 1 43
e 1 45
e 1 47
e 1 48
e 1 50
e 1 53
e 1 54
e 1 55
e 1 56
e 1 58
e 1 59
e 1 61
e 1 63
e 1 65
e 1 68
e 1 69
e 1 70
e 2 4
e 2 5
e 2 6
e 2 7
e 2 8
e 2 9
e 2 10
e 2 12
e 2 14
e 2 15
e 2 17
e 2 21
e 2 22
e 2 25
e 2 27
e 2 28
e 2 29
e 2 30
e 2 32
e 2 35
e 2 36
e 2 38
e 2 39
e 2 43
e 2 45
e 2 46
e 2 47
e 2 48
e 2 49
e 2 50
e 2 52
e 2 53
e 2 54
e 2 55
e 2 56
e 2 58
e 2 59
e 2 61
e 2 62
e 2 63
e 2 65
e 2 68
e 2 69
e 2 70
e 3 9
e 3 10
e 3 11
e 3 13
e 3 15
e 3 16
e 3 17
e 3 18
e 3 19
e 3 20
e 3 21
e 3 23
e 3 24
e 3 25
e 3 26
e 3 31
e 3 33
e 3 34
e 3 35
e 3 36
e 3 37
e 3 40
e 3 41
e 3 42
e 3 43
e 3 44
e 3 45
e 3 46
e 3 49
e 3 51
e 3 52
e 3 55
e 3 56
e 3 57
e 3 60
e 3 62
e 3 64
e 3 66
e 3 67
e 3 70
e 4 5
e 4 6
e 4 7
e 4 8
e 4 10
e 4 12
e 4 13
e 4 14
e 4 15
e 4 16
e 4 17
e 4 22
e 4 25
e 4 27
e 4 28
e 4 29
e 4 30
e 4 32
e 4 36
e 4 38
e 4 39
e 4 42
e 4 43
e 4 45
e 4 47
e 4 48
e 4 50
e 4 53
e 4 54
e 4 55
e 4 56
e 4 58
e 4 59
e 4 61
e 4 63
e 4 65
e 4 67
e 4 68
e 4 69
e 4 70
e 5 6
e 5 7
e 5 8
e 5 10
e 5 12
e 5 14
e 5 15
e 5 17
e 5 21
e 5 22
e 5 25
e 5 27
e 5 28
e 5 29
e 5 30
e 5 32
e 5 34
e 5 36
e 5 38
e 5 39
e 5 42
e 5 43
e 5 45
e 5 46
e 5 47
e 5 48
e 5 50
e 5 53
e 5 54
e 5 55
e 5 56
e 5 58
e 5 59
e 5 61
e 5 63
e 5 65
e 5 66
e 5 68
e 5 69
e 5 70
e 6 7
e 6 8
e 6 10
e 6 12
e 6 14
e 6 15
e 6 16
e 6 17
e 6 20
e 6 22
e 6 25
e 6 27
e 6 28
e 6 29
e 6 30
e 6 32
e 6 38
e 6 39
e 6 43
e 6 45
e 6 47
e 6 48
e 6 49
e 6 50
e 6 53
e 6 54
e 6 55
e 6 56
e 6 57
e 6 58
e 6 59
e 6 61
e 6 63
e 6 65
e 6 68
e 6 69
e 6 70
e 7 8
e 7 10
e 7 12
e 7 14
e 7 15
e 7 17
e 7 18
e 7 20
e 7 22
e 7 25
e 7 27
e 7 28
e 7 29
e 7 30
e 7 32
e 7 33
e 7 38
e 7 39
e 7 43
e 7 45
e 7 47
e 7 48
e 7 50
e 7 51
e 7 53
e 7 54
e 7 55
e 7 56
e 7 58
e 7 59
e 7 61
e 7 63
e 7 65
e 7 68
e 7 69
e 7 70
e 8 10
e 8 11
e 8 12
e 8 14
e 8 15
e 8 16
e 8 17
e 8 22
e 8 25
e 8 27
e 8 28
e 8 29
e 8 30
e 8 32
e 8 38
e 8 39
e 8 43
e 8 45
e 8 47
e 8 48
e 8 50
e 8 53
e 8 54
e 8 55
e 8 56
e 8 57
e 8 58
e 8 59
e 8 61
e 8 63
e 8 65
e 8 66
e 8 67
e 8 68
e 8 69
e 8 70
e 9 10
e 9 11
e 9 13
e 9 16
e 9 18
e 9 19
e 9 20
e 9 21
e 9 23
e 9 24
e 9 26
e 9 31
e 9 33
e 9 34
e 9 35
e 9 36
e 9 37
e 9 40
e 9 41
e 9 42
e 9 44
e 9 46
e 9 49
e 9 51
e 9 52
e 9 57
e 9 58
e 9 60
e 9 62
e 9 64
e 9 66
e 9 67
e 10 12
e 10 14
e 10 15
e 10 16
e 10 17
e 10 22
e 10 25
e 10 27
e 10 28
e 10 29
e 10 30
e 10 32
e 10 35
e 10 38
e 10 39
e 10 43
e 10 45
e 10 47
e 10 48
e 10 50
e 10 52
e 10 53
e 10 54
e 10 55
e 10 56
e 10 58
e 10 59
e 10 60
e 10 61
e 10 63
e 10 65
e 10 67
e 10 68
e 10 69
e 10 70
e 11 12
e 11 13
e 11 16
e 11 18
e 11 19
e 11 20
e 11 21
e 11 23
e 11 24
e 11 26
e 11 28
e 11 31
e 11 33
e 11 34
e 11 35
e 11 36
e 11 37
e 11 38
e 11 40
e 11 41
e 11 42
e 11 44
e 11 46
e 11 49
e 11 51
e 11 52
e 11 53
e 11 57
e 11 58
e 11 60
e 11 62
e 11 63
e 11 64
e 11 66
e 11 67
e 11 69
e 12 13
e 12 14
e 12 15
e 12 17
e 12 19
e 12 22
e 12 24
e 12 25
e 12 26
e 12 27
e 12 28
e 12 29
e 12 30
e 12 32
e 12 34
e 12 38
e 12 39
e 12 43
e 12 45
e 12 47
e 12 48
e 12 50
e 12 53
e 12 54
e 12 55
e 12 56
e 12 58
e 12 59
e 12 61
e 12 63
e 12 65
e 12 68
e 12 69
e 12 70
e 13 16
e 13 18
e 13 19
e 13 20
e 13 21
e 13 22
e 13 23
e 13 24
e 13 26
e 13 30
e 13 31
e 13 33
e 13 34
e 13 35
e 13 36
e 13 37
e 13 39
e 13 40
e 13 41
e 13 42
e 13 44
e 13 46
e 13 48
e 13 49
e 13 51
e 13 52
e 13 54
e 13 57
e 13 60
e 13 62
e 13 63
e 13 64
e 13 66
e 13 67
e 14 15
e 14 17
e 14 20
e 14 22
e 14 25
e 14 27
e 14 28
e 14 29
e 14 30
e 14 32
e 14 34
e 14 35
e 14 38
e 14 39
e 14 42
e 14 43
e 14 45
e 14 47
e 14 48
e 14 49
e 14 50
e 14 53
e 14 54
e 14 55
e 14 56
e 14 58
e 14 59
e 14 61
e 14 63
e 14 64
e 14 65
e 14 68
e 14 69
e 14 70
e 15 17
e 15 22
e 15 25
e 15 27
e 15 28
e 15 29
e 15 30
e 15 31
e 15 32
e 15 34
e 15 38
e 15 39
e 15 40
e 15 42
e 15 43
e 15 45
e 15 47
e 15 48
e 15 50
e 15 52
e 15 53
e 15 54
e 15 55
e 15 56
e 15 58
e 15 59
e 15 61
e 15 62
e 15 63
e 15 64
e 15 65
e 15 67
e 15 68
e 15 69
e 15 70
e 16 17
e 16 18
e 16 19
e 16 20
e 16 21
e 16 23
e 16 24
e 16 26
e 16 28
e 16 31
e 16 33
e 16 34
e 16 35
e 16 36
e 16 37
e 16 38
e 16 40
e 16 41
e 16 42
e 16 43
e 16 44
e 16 46
e 16 49
e 16 51
e 16 52
e 16 55
e 16 56
e 16 57
e 16 60
e 16 62
e 16 64
e 16 65
e 16 66
e 16 67
e 16 68
e 16 69
e 17 19
e 17 22
e 17 25
e 17 27
e 17 28
e 17 29
e 17 30
e 17 32
e 17 33
e 17 35
e 17 36
e 17 38
e 17 39
e 17 42
e 17 43
e 17 45
e 17 47
e 17 48
e 17 50
e 17 53
e 17 54
e 17 55
e 17 56
e 17 57
e 17 58
e 17 59
e 17 61
e 17 63
e 17 65
e 17 67
e 17 68
e 17 69
e 17 70
e 18 19
e 18 20
e 18 21
e 18 23
e 18 24
e 18 25
e 18 26
e 18 31
e 18 33
e 18 34
e 18 35
e 18 36
e 18 37
e 18 39
e 18 40
e 18 41
e 18 42
e 18 44
e 18 46
e 18 49
e 18 51
e 18 52
e 18 57
e 18 60
e 18 61
e 18 62
e 18 64
e 18 65
e 18 66
e 18 67
e 19 20
e 19 21
e 19 23
e 19 24
e 19 26
e 19 31
e 19 33
e 19 34
e 19 35
e 19 36
e 19 37
e 19 38
e 19 40
e 19 41
e 19 42
e 19 44
e 19 46
e 19 49
e 19 51
e 19 52
e 19 57
e 19 59
e 19 60
e 19 62
e 19 64
e 19 66
e 19 67
e 19 69
e 20 21
e 20 23
e 20 24
e 20 25
e 20 26
e 20 30
e 20 31
e 20 32
e 20 33
e 20 34
e 20 35
e 20 36
e 20 37
e 20 39
e 20 40
e 20 41
e 20 42
e 20 44
e 20 46
e 20 49
e 20 51
e 20 52
e 20 57
e 20 58
e 20 60
e 20 62
e 20 64
e 20 65
e 20 66
e 20 67
e 20 69
e 21 23
e 21 24
e 21 26
e 21 27
e 21 31
e 21 32
e 21 33
e 21 34
e 21 35
e 21 36
e 21 37
e 21 40
e 21 41
e 21 42
e 21 44
e 21 46
e 21 49
e 21 51
e 21 52
e 21 56
e 21 57
e 21 58
e 21 60
e 21 61
e 21 62
e 21 64
e 21 66
e 21 67
e 21 69
e 22 23
e 22 25
e 22 27
e 22 28
e 22 29
e 22 30
e 22 31
e 22 32
e 22 35
e 22 37
e 22 38
e 22 39
e 22 41
e 22 43
e 22 44
e 22 45
e 22 47
e 22 48
e 22 50
e 22 52
e 22 53
e 22 54
e 22 55
e 22 56
e 22 58
e 22 59
e 22 61
e 22 62
e 22 63
e 22 65
e 22 68
e 22 69
e 22 70
e 23 24
e 23 26
e 23 31
e 23 33
e 23 34
e 23 35
e 23 36
e 23 37
e 23 40
e 23 41
e 23 42
e 23 44
e 23 46
e 23 49
e 23 51
e 23 52
e 23 55
e 23 57
e 23 60
e 23 62
e 23 63
e 23 64
e 23 65
e 23 66
e 23 67
e 23 68
e 24 26
e 24 30
e 24 31
e 24 32
e 24 33
e 24 34
e 24 35
e 24 36
e 24 37
e 24 40
e 24 41
e 24 42
e 24 44
e 24 46
e 24 47
e 24 49
e 24 51
e 24 52
e 24 55
e 24 57
e 24 60
e 24 61
e 24 62
e 24 64
e 24 65
e 24 66
e 24 67
e 25 27
e 25 28
e 25 29
e 25 30
e 25 31
e 25 32
e 25 33
e 25 36
e 25 38
e 25 39
e 25 40
e 25 43
e 25 45
e 25 47
e 25 48
e 25 50
e 25 53
e 25 54
e 25 55
e 25 56
e 25 57
e 25 58
e 25 59
e 25 61
e 25 62
e 25 63
e 25 64
e 25 65
e 25 66
e 25 68
e 25 69
e 25 70
e 26 31
e 26 33
e 26 34
e 26 35
e 26 36
e 26 37
e 26 40
e 26 41
e 26 42
e 26 43
e 26 44
e 26 46
e 26 47
e 26 49
e 26 51
e 26 52
e 26 54
e 26 57
e 26 60
e 26 62
e 26 64
e 26 66
e 26 67
e 27 28
e 27 29
e 27 30
e 27 32
e 27 35
e 27 38
e 27 39
e 27 43
e 27 45
e 27 46
e 27 47
e 27 48
e 27 50
e 27 51
e 27 53
e 27 54
e 27 55
e 27 56
e 27 58
e 27 59
e 27 60
e 27 61
e 27 62
e 27 63
e 27 65
e 27 68
e 27 69
e 27 70
e 28 29
e 28 30
e 28 32
e 28 38
e 28 39
e 28 41
e 28 43
e 28 45
e 28 47
e 28 48
e 28 49
e 28 50
e 28 51
e 28 52
e 28 53
e 28 54
e 28 55
e 28 56
e 28 58
e 28 59
e 28 60
e 28 61
e 28 62
e 28 63
e 28 65
e 28 68
e 28 69
e 28 70
e 29 30
e 29 32
e 29 35
e 29 37
e 29 38
e 29 39
e 29 43
e 29 45
e 29 46
e 29 47
e 29 48
e 29 50
e 29 53
e 29 54
e 29 55
e 29 56
e 29 58
e 29 59
e 29 61
e 29 63
e 29 65
e 29 66
e 29 68
e 29 69
e 29 70
e 30 32
e 30 36
e 30 37
e 30 38
e 30 39
e 30 43
e 30 44
e 30 45
e 30 47
e 30 48
e 30 50
e 30 51
e 30 53
e 30 54
e 30 55
e 30 56
e 30 58
e 30 59
e 30 61
e 30 63
e 30 64
e 30 65
e 30 66
e 30 68
e 30 69
e 30 70
e 31 32
e 31 33
e 31 34
e 31 35
e 31 36
e 31 37
e 31 40
e 31 41
e 31 42
e 31 44
e 31 46
e 31 49
e 31 51
e 31 52
e 31 53
e 31 57
e 31 60
e 31 62
e 31 64
e 31 66
e 31 67
e 32 34
e 32 38
e 32 39
e 32 43
e 32 45
e 32 47
e 32 48
e 32 49
e 32 50
e 32 52
e 32 53
e 32 54
e 32 55
e 32 56
e 32 58
e 32 59
e 32 61
e 32 63
e 32 65
e 32 68
e 32 69
e 32 70
e 33 34
e 33 35
e 33 36
e 33 37
e 33 40
e 33 41
e 33 42
e 33 44
e 33 46
e 33 48
e 33 49
e 33 51
e 33 52
e 33 54
e 33 56
e 33 57
e 33 60
e 33 62
e 33 63
e 33 64
e 33 66
e 33 67
e 34 35
e 34 36
e 34 37
e 34 39
e 34 40
e 34 41
e 34 42
e 34 44
e 34 45
e 34 46
e 34 49
e 34 51
e 34 52
e 34 57
e 34 60
e 34 61
e 34 62
e 34 63
e 34 64
e 34 65
e 34 66
e 34 67
e 35 36
e 35 37
e 35 39
e 35 40
e 35 41
e 35 42
e 35 43
e 35 44
e 35 46
e 35 48
e 35 49
e 35 51
e 35 52
e 35 54
e 35 57
e 35 60
e 35 62
e 35 64
e 35 66
e 35 67
e 35 69
e 36 37
e 36 40
e 36 41
e 36 42
e 36 44
e 36 46
e 36 49
e 36 50
e 36 51
e 36 52
e 36 56
e 36 57
e 36 60
e 36 62
e 36 64
e 36 66
e 36 67
e 37 40
e 37 41
e 37 42
e 37 44
e 37 45
e 37 46
e 37 47
e 37 49
e 37 51
e 37 52
e 37 56
e 37 57
e 37 60
e 37 62
e 37 64
e 37 65
e 37 66
e 37 67
e 37 70
e 38 39
e 38 43
e 38 44
e 38 45
e 38 47
e 38 48
e 38 49
e 38 50
e 38 53
e 38 54
e 38 55
e 38 56
e 38 58
e 38 59
e 38 60
e 38 61
e 38 63
e 38 65
e 38 68
e 38 69
e 38 70
e 39 43
e 39 45
e 39 47
e 39 48
e 39 50
e 39 53
e 39 54
e 39 55
e 39 56
e 39 58
e 39 59
e 39 61
e 39 63
e 39 65
e 39 68
e 39 69
e 39 70
e 40 41
e 40 42
e 40 43
e 40 44
e 40 46
e 40 47
e 40 49
e 40 51
e 40 52
e 40 55
e 40 57
e 40 60
e 40 61
e 40 62
e 40 64
e 40 66
e 40 67
e 41 42
e 41 44
e 41 45
e 41 46
e 41 49
e 41 50
e 41 51
e 41 52
e 41 57
e 41 60
e 41 62
e 41 64
e 41 66
e 41 67
e 41 70
e 42 44
e 42 45
e 42 46
e 42 49
e 42 50
e 42 51
e 42 52
e 42 57
e 42 60
e 42 62
e 42 63
e 42 64
e 42 65
e 42 66
e 42 67
e 43 44
e 43 45
e 43 47
e 43 48
e 43 50
e 43 51
e 43 52
e 43 53
e 43 54
e 43 55
e 43 56
e 43 57
e 43 58
e 43 59
e 43 61
e 43 63
e 43 64
e 43 65
e 43 68
e 43 69
e 43 70
e 44 46
e 44 49
e 44 51
e 44 52
e 44 55
e 44 56
e 44 57
e 44 60
e 44 61
e 44 62
e 44 63
e 44 64
e 44 66
e 44 67
e 44 69
e 45 46
e 45 47
e 45 48
e 45 49
e 45 50
e 45 53
e 45 54
e 45 55
e 45 56
e 45 58
e 45 59
e 45 61
e 45 63
e 45 64
e 45 65
e 45 68
e 45 69
e 45 70
e 46 47
e 46 48
e 46 49
e 46 51
e 46 52
e 46 57
e 46 60
e 46 61
e 46 62
e 46 63
e 46 64
e 46 65
e 46 66
e 46 67
e 47 48
e 47 50
e 47 51
e 47 53
e 47 54
e 47 55
e 47 56
e 47 58
e 47 59
e 47 61
e 47 63
e 47 65
e 47 68
e 47 69
e 47 70
e 48 50
e 48 53
e 48 54
e 48 55
e 48 56
e 48 57
e 48 58
e 48 59
e 48 60
e 48 61
e 48 63
e 48 65
e 48 67
e 48 68
e 48 69
e 48 70
e 49 51
e 49 52
e 49 54
e 49 57
e 49 60
e 49 62
e 49 64
e 49 66
e 49 67
e 50 53
e 50 54
e 50 55
e 50 56
e 50 58
e 50 59
e 50 60
e 50 61
e 50 63
e 50 64
e 50 65
e 50 68
e 50 69
e 50 70
e 51 52
e 51 55
e 51 56
e 51 57
e 51 60
e 51 61
e 51 62
e 51 63
e 51 64
e 51 66
e 51 67
e 51 70
e 52 53
e 52 56
e 52 57
e 52 60
e 52 62
e 52 64
e 52 65
e 52 66
e 52 67
e 53 54
e 53 55
e 53 56
e 53 58
e 53 59
e 53 61
e 53 62
e 53 63
e 53 65
e 53 67
e 53 68
e 53 69
e 53 70
e 54 55
e 54 56
e 54 57
e 54 58
e 54 59
e 54 60
e 54 61
e 54 63
e 54 65
e 54 66
e 54 68
e 54 69
e 54 70
e 55 56
e 55 58
e 55 59
e 55 60
e 55 61
e 55 63
e 55 65
e 55 68
e 55 69
e 55 70
e 56 58
e 56 59
e 56 61
e 56 63
e 56 65
e 56 68
e 56 69
e 56 70
e 57 60
e 57 62
e 57 64
e 57 66
e 57 67
e 58 59
e 58 61
e 58 62
e 58 63
e 58 65
e 58 68
e 58 69
e 58 70
e 59 61
e 59 62
e 59 63
e 59 65
e 59 68
e 59 69
e 59 70
e 60 62
e 60 63
e 60 64
e 60 66
e 60 67
e 60 68
e 60 69
e 61 63
e 61 65
e 61 68
e 61 69
e 61 70
e 62 64
e 62 66
e 62 67
e 63 65
e 63 67
e 63 68
e 63 69
e 63 70
e 64 66
e 64 67
e 64 69
e 65 68
e 65 69
e 65 70
e 66 67
e 66 69
e 68 69
e 68 70
e 69 70
